Instance name:    bar-n100-1
Authors:          PDPTW Solver
Date:             2025-11-20
Reference:        LNS with SA/RTR
Solution
Route 1 : 13 39 89 63 48 16 66 50 98 41 91 100 25 6 56 75 23 73
Route 2 : 31 14 64 44 35 81 5 55 32 82 19 85 69 94
Route 3 : 15 27 26 76 7 57 24 74 65 43 49 99 77 93 37 87
Route 4 : 29 21 71 47 79 11 22 97 72 10 60 61 46 96 3 53
Route 5 : 40 17 20 67 2 52 8 58 70 45 4 54 90 95 1 51
Route 6 : 30 80 33 34 84 9 59 42 38 83 28 92 88 78 12 18 62 68 36 86
